








































































































72 41 24 70 9 48 32 62 31 
57 35 17 39 36 73 67 51 
27 52 12 71 66 21 33 10 44 
49 18 61 26 19 46 54 0 
56 74 15 25 4 47 30 
3 34 76 2 1 40 28 60 8 
55 38 45 43 58 37 64 29 50 5 
23 63 65 53 42 59 69 75 
68 16 13 6 11 7 14 20 
22 
